120
[24,25,26,27,28,29,30,31,32,33,34,35,36,37,38,39,40,41,42,43,44,45,47,48,49,50,51,52,53,54,55,56,57,58,59,60,61,62,63,64,65,66,67,68,69,70,71,72,73,74,75,76,77,78,79,80,81,82,83,84]
[7,6,6,3,6,1,7,5,7,4,5,4,4,4,4,9,2,5,5,10,5,4,4,6,3,7,4,7,1,5,7,7,4,6,7,5,3,4,1,3,4,6,4,7,3,3,2,2,4,6,5,5,8,6,4,8,7,2,7,10]
